
Gurobi 9.0.1 (win64) logging started 11/11/21 13:36:50

Changed value of parameter LogFile to ../results/logs/log_samuel_kroger_2021_11_11_13_36_49.csv_10_5.log
   Prev:   Default: 
Changed value of parameter method to 3
   Prev: -1  Min: -1  Max: 5  Default: -1
Gurobi Optimizer version 9.0.1 build v9.0.1rc0 (win64)
Optimize a model with 11399 rows, 46266 columns and 273078 nonzeros
Model fingerprint: 0xeeb1a03b
Variable types: 23133 continuous, 23133 integer (23133 binary)
Coefficient statistics:
  Matrix range     [1e+00, 1e+01]
  Objective range  [1e+00, 1e+00]
  Bounds range     [1e+00, 1e+00]
  RHS range        [1e+00, 5e+00]
Found heuristic solution: objective -0.0000000
Presolve removed 1174 rows and 31916 columns
Presolve time: 0.71s
Presolved: 10225 rows, 14350 columns, 196958 nonzeros
Variable types: 9184 continuous, 5166 integer (5166 binary)

Concurrent LP optimizer: dual simplex and barrier
Showing barrier log only...

Root barrier log...

Ordering time: 0.48s

Barrier statistics:
 Dense cols : 16
 AA' NZ     : 5.380e+05
 Factor NZ  : 6.763e+06 (roughly 60 MBytes of memory)
 Factor Ops : 1.412e+10 (less than 1 second per iteration)
 Threads    : 3

                  Objective                Residual
Iter       Primal          Dual         Primal    Dual     Compl     Time
   0   1.70829929e+04  5.82957754e+02  2.01e+04 1.00e+00  2.62e+00     2s
   1   1.45667423e+04  3.01197020e+03  1.43e+04 8.13e-01  1.82e+00     2s
   2   9.97021341e+03  6.40177802e+03  6.64e+03 2.64e-01  8.47e-01     2s
   3   4.50317184e+03  6.51632413e+03  4.96e+02 6.33e-15  1.10e-01     3s

Barrier performed 3 iterations in 2.61 seconds
Barrier solve interrupted - model solved by another algorithm


Solved with dual simplex

Root relaxation: objective 4.387930e+03, 10220 iterations, 1.85 seconds

    Nodes    |    Current Node    |     Objective Bounds      |     Work
 Expl Unexpl |  Obj  Depth IntInf | Incumbent    BestBd   Gap | It/Node Time

     0     0 4387.92971    0 2150   -0.00000 4387.92971      -     -    3s
     0     0 3447.19603    0 1331   -0.00000 3447.19603      -     -    7s
     0     0 3017.86531    0  987   -0.00000 3017.86531      -     -    8s
     0     0 2994.94351    0  942   -0.00000 2994.94351      -     -    9s
     0     0 2993.08002    0  964   -0.00000 2993.08002      -     -    9s
     0     0 2992.15092    0  934   -0.00000 2992.15092      -     -    9s
     0     0 2991.62790    0  933   -0.00000 2991.62790      -     -    9s
     0     0 2718.61857    0  963   -0.00000 2718.61857      -     -   10s
     0     0 2662.33256    0 1073   -0.00000 2662.33256      -     -   11s
     0     0 2654.60957    0 1039   -0.00000 2654.60957      -     -   11s
     0     0 2651.32682    0 1040   -0.00000 2651.32682      -     -   12s
     0     0 2650.91701    0 1064   -0.00000 2650.91701      -     -   12s
     0     0 2560.77421    0 1074   -0.00000 2560.77421      -     -   17s
     0     0 2526.35836    0 1075   -0.00000 2526.35836      -     -   18s
     0     0 2511.47640    0 1220   -0.00000 2511.47640      -     -   19s
     0     0 2504.54609    0 1355   -0.00000 2504.54609      -     -   21s
     0     0 2500.84258    0 1409   -0.00000 2500.84258      -     -   22s
     0     0 2498.53234    0 1548   -0.00000 2498.53234      -     -   23s
     0     0 2497.09855    0 1499   -0.00000 2497.09855      -     -   24s
     0     0 2496.34028    0 1505   -0.00000 2496.34028      -     -   24s
     0     0 2477.70724    0 1358   -0.00000 2477.70724      -     -   32s
     0     0 2463.72840    0 1425   -0.00000 2463.72840      -     -   35s
     0     0 2457.06274    0 1479   -0.00000 2457.06274      -     -   37s
     0     0 2451.94496    0 1629   -0.00000 2451.94496      -     -   39s
     0     0 2449.72541    0 1727   -0.00000 2449.72541      -     -   41s
     0     0 2448.25104    0 1812   -0.00000 2448.25104      -     -   42s
     0     0 2447.32426    0 1785   -0.00000 2447.32426      -     -   43s
     0     0 2442.56699    0 1647   -0.00000 2442.56699      -     -   46s
     0     0 2438.15431    0 1678   -0.00000 2438.15431      -     -   50s
     0     0 2434.74777    0 1823   -0.00000 2434.74777      -     -   53s
